9 4
17 43
16 46
11 7
27 8
16 18
12 6
8 11
16 41
11 6
10 25
29 32
21 38
6 32
29 43
19 26
24 16
5 44
5 46
24 45
14 9
19 29
7 20
30 19
28 47
24 6
16 48
18 41
13 40
9 21
18 26
5 26
17 50
12 31
7 36
25 24
21 28
18 36
24 50
24 27
11 8
15 41
28 30
20 46
30 44
5 44
27 18
12 38
6 15
15 3
